LengthSchedulingHorizon=2749;
nAttributes=5;
SetupCosts=[[0, 0, 0, 0, 0], [4, 4, 4, 4, 4], [4, 4, 4, 4, 4], [4, 4, 4, 4, 4], [4, 4, 4, 4, 4], [4, 4, 4, 4, 4]];
SetupTimes=[[0, 0, 0, 0, 0], [7, 7, 7, 7, 7], [7, 7, 7, 7, 7], [7, 7, 7, 7, 7], [7, 7, 7, 7, 7], [7, 7, 7, 7, 7]];
nMachines=2;
MinCap=[0, 0];
MaxCap=[99, 83];

initState=[4, 3];
nShifts=2;
ShiftStartTimes = [[402, 2731], [0, 571]];
ShiftEndTimes = [[2221, 2748], [0, 2465]];
nJobs=25;
EligibleMachines = [{1, 2}, {2}, {1}, {1, 2}, {1, 2}, {2}, {2}, {1}, {1}, {2}, {1}, {2}, {1}, {2}, {1, 2}, {1, 2}, {1, 2}, {1, 2}, {2}, {2}, {1}, {1, 2}, {1, 2}, {1}, {1}];
EarliestStart=[533, 296, 286, 239, 242, 633, 217, 630, 314, 412, 650, 276, 523, 122, 547, 643, 188, 685, 99, 105, 207, 584, 501, 250, 195];
LatestEnd=[560, 490, 315, 291, 618, 941, 247, 831, 507, 511, 1042, 378, 848, 338, 561, 735, 400, 787, 292, 169, 209, 590, 752, 736, 304];
MinTime=[26, 96, 9, 39, 84, 85, 25, 75, 40, 72, 88, 35, 87, 72, 5, 28, 92, 74, 62, 47, 1, 5, 55, 98, 73];
MaxTime=[75, 97, 69, 88, 85, 88, 91, 98, 51, 80, 92, 37, 93, 100, 68, 94, 94, 89, 83, 66, 70, 36, 55, 100, 79];
JobSize=[10, 17, 18, 18, 11, 12, 2, 13, 6, 7, 20, 18, 18, 15, 16, 12, 14, 8, 11, 7, 4, 12, 15, 11, 17];
Attribute=[5, 5, 5, 3, 4, 5, 1, 1, 5, 5, 4, 1, 5, 1, 2, 1, 2, 5, 3, 5, 5, 2, 1, 4, 5];

upper_bound_integer_objective=4042500;
mult_factor_total_runtime=112;
mult_factor_finished_toolate=154000;
mult_factor_total_setuptimes=0;
mult_factor_total_setupcosts=385;
running_time_bound=1373;
min_duration=1;
max_duration=98;
max_setup_time=7;
max_setup_cost=4;
